nNurses = 163;
nHours = 31;
minHours = 10;
maxHours = 17;
maxConsec = 6;
maxPresence = 10;
demand = [30, 28, 27, 26, 23, 18, 19, 14, 9, 9, 14, 12, 11, 9, 8, 11, 13, 16, 18, 19, 19, 18, 20, 21, 20, 25, 24, 27, 24, 27, 32];
